Version identifier: 22.1.1.0 | 2022-11-28 | 9160aff4d
CPXPARAM_Threads                                 1
CPXPARAM_MIP_Strategy_VariableSelect             3
CPXPARAM_TimeLimit                               599.99770277899995
Tried aggregator 1 time.
MIP Presolve eliminated 16 rows and 382 columns.
Reduced MIP has 2288 rows, 4202 columns, and 36814 nonzeros.
Reduced MIP has 4202 binaries, 0 generals, 0 SOSs, and 0 indicators.
Presolve time = 0.01 sec. (17.68 ticks)
Found incumbent of value 0.000000 after 0.04 sec. (54.49 ticks)

Root node processing (before b&c):
  Real time             =    0.04 sec. (54.67 ticks)
Sequential b&c:
  Real time             =    0.00 sec. (0.00 ticks)
                          ------------
Total (root+branch&cut) =    0.04 sec. (54.67 ticks)
Primal:	382
Dual:	382
Status:	Optimal
Time:	0.0581267
Sequence:
	1
	4
	1
	9
	9
	10
	4
	7
	0
	1
	4
	0
	9
	9
	1
	4
	9
	6
	1
	9
	4
	4
	9
	6
	4
	9
	7
	4
	1
	4
	9
	9
	9
	9
	9
	9
	9
	4
	1
	4
	6
	1
	1
	4
	1
	9
	9
	1
	6
	1
	4
	9
	4
	9
	4
	4
	9
	4
	6
	9
	5
	5
	9
	9
	6
	4
	9
	9
	0
	9
	5
	0
	4
	9
	5
	9
	0
	9
	1
	9
	4
	4
	9
	7
	6
	9
	4
	9
	4
	7
	1
	1
	4
	9
	9
	6
	9
	4
	0
	1
	9
	1
	1
	9
	8
	5
	1
	0
	4
	1
	1
	9
	0
	1
	4
	0
	9
	7
	4
	1
	9
	1
	0
	9
	4
	6
	0
	4
	4
	9
	9
	9
	1
	0
	7
	9
	6
	4
	9
	9
	7
	9
	4
	4
	9
	9
	6
	4
	9
	9
	9
	5
	1
	6
	9
	5
	4
	0
	4
	11
	9
	5
	4
	9
	9
	4
	4
	9
	9
	6
	4
	9
	0
	3
	1
	9
	4
	9
	9
	6
	1
	5
	4
	9
	4
	9
	4
	9
	9
	1
	10
	9
	9
	1
	9
	1
	4
	7
	9
	4
	0
	4
	1
	9
	6
	9
	4
	9
	5
	9
	4
	1
	7
	4
	9
	6
	8
	9
	5
	9
	5
	4
	9
	4
	0
	7
	4
	9
	6
	4
	0
	9
	4
	1
	6
	0
	9
	4
	4
	9
	1
	9
	9
	4
	9
	6
	0
	9
	5
	4
	9
	4
	9
	6
	5
	9
	1
	9
	3
	9
	1
	5
	4
	9
	4
	1
	4
	4
	1
	4
	9
	7
	9
	6
	1
	4
	1
	4
	4
	9
	4
	9
	5
	3
	4
	5
	0
	4
	4
	9
	6
	11
	4
	9
	9
	9
	4
	1
	9
	9
	1
	9
	1
	1
	5
	9
	6
	7
	0
	4
	6
	9
	4
	4
	9
	1
	9
	9
	9
	9
	1
	4
	5
	9
	5
	9
	4
	7
	9
	0
	4
	5
	9
	4
	9
	1
	1
	4
	9
	4
	1
	6
	0
	4
	9
	5
	9
	9
	9
	4
	4
	0
	9
	5
	4
	1
	7
	6
	9
	1
	9
	0
	9
	5
	4
	9
	7
	4
	9
	1
	4
	9
	4
	1
	6
	9
	7
	9
	5
	1
	6
	4
